Log file: C:\Users\user\robust_bilevel_network_games\true_dro\log_polska_S10_20260414_1722423.txt
Started: 2026-04-14T17:22:59.585


======================================================================
INSTANCE: polska (S=10, ε̂=0.1, ε̃=0.1)
======================================================================
============================================================
POLSKA Network Summary
============================================================
Number of nodes: 12
Number of arcs (incl. dummy): 37
Number of regular arcs: 36
Number of interdictable arcs: 28
Source node: s (Szczecin)
Sink node: t (Rzeszow)
Node-incidence matrix N dimensions: (11, 37)

Sparsity Information:
  Arc-arc adjacency: 384 / 1296 pairs (70.4% sparse)
  Node-arc incidence: 68 / 396 pairs (82.8% sparse)

First 15 arcs:
  Arc 1: ("Bialystok", "Gdansk") [Interdictable: ✓]
  Arc 2: ("Bialystok", "Warsaw") [Interdictable: ✓]
  Arc 3: ("Bialystok", "t") [Interdictable: ✗]
  Arc 4: ("Bydgoszcz", "Kolobrzeg") [Interdictable: ✓]
  Arc 5: ("Bydgoszcz", "Poznan") [Interdictable: ✓]
  Arc 6: ("Bydgoszcz", "Warsaw") [Interdictable: ✓]
  Arc 7: ("Gdansk", "Bialystok") [Interdictable: ✓]
  Arc 8: ("Gdansk", "Kolobrzeg") [Interdictable: ✓]
  Arc 9: ("Gdansk", "Warsaw") [Interdictable: ✓]
  Arc 10: ("Katowice", "Krakow") [Interdictable: ✓]
  Arc 11: ("Katowice", "Lodz") [Interdictable: ✓]
  Arc 12: ("Katowice", "Wroclaw") [Interdictable: ✓]
  Arc 13: ("Kolobrzeg", "Bydgoszcz") [Interdictable: ✓]
  Arc 14: ("Kolobrzeg", "Gdansk") [Interdictable: ✓]
  Arc 15: ("Kolobrzeg", "s") [Interdictable: ✗]
============================================================
  |A|=36, S=10, γ=3, w=3.1321, λU=2.0
  ε̂=0.1, ε̃=0.1

======================================================================
1. True-DRO Benders (bilinear subproblem via Gurobi NonConvex=2)
======================================================================
Set parameter Username
Set parameter LicenseID to value 2742039
Academic license - for non-commercial use only - expires 2026-11-20
Set parameter Username
Set parameter LicenseID to value 2742039
Academic license - for non-commercial use only - expires 2026-11-20
Set parameter DualReductions to value 0
Set parameter NonConvex to value 2
Set parameter Username
Set parameter LicenseID to value 2742039
Academic license - for non-commercial use only - expires 2026-11-20
Set parameter Username
Set parameter LicenseID to value 2742039
Academic license - for non-commercial use only - expires 2026-11-20
Set parameter OutputFlag to value 1
Set parameter OutputFlag to value 1
Gurobi Optimizer version 13.0.0 build v13.0.0rc1 (win64 - Windows 10.0 (19045.2))

CPU model: AMD Ryzen 9 5900X 12-Core Processor, instruction set [SSE2|AVX|AVX2]
Thread count: 12 physical cores, 24 logical processors, using up to 24 threads

Optimize a model with 1460 rows, 867 columns and 4255 nonzeros (Min)
Model fingerprint: 0xe9272e33
Model has 1 linear objective coefficients
Variable types: 831 continuous, 36 integer (36 binary)
Coefficient statistics:
  Matrix range     [2e-02, 1e+01]
  Objective range  [1e+00, 1e+00]
  Bounds range     [1e+00, 1e+04]
  RHS range        [1e+00, 3e+00]
Found heuristic solution: objective 26.2247337
Presolve removed 689 rows and 202 columns
Presolve time: 0.00s
Presolved: 771 rows, 665 columns, 1825 nonzeros
Found heuristic solution: objective 26.2247337
Variable types: 640 continuous, 25 integer (25 binary)

Root relaxation: objective 1.310063e-14, 154 iterations, 0.00 seconds (0.00 work units)

    Nodes    |    Current Node    |     Objective Bounds      |     Work
 Expl Unexpl |  Obj  Depth IntInf | Incumbent    BestBd   Gap | It/Node Time

*    0     0               0       0.0000000    0.00000  0.00%     -    0s

Explored 1 nodes (154 simplex iterations) in 0.01 seconds (0.01 work units)
Thread count was 24 (of 24 available processors)

Solution count 2: 0 26.2247 

Optimal solution found (tolerance 1.00e-04)
Best objective 0.000000000000e+00, best bound 0.000000000000e+00, gap 0.0000%

User-callback calls 38, time in user-callback 0.00 sec
